objective value:                                11711
t_x_3                                               1 	(obj:12)
t_x_4                                               1 	(obj:29)
t_x_5                                               1 	(obj:3)
t_x_6                                               1 	(obj:16)
t_x_8                                               1 	(obj:31)
t_x_15                                              1 	(obj:14)
t_x_20                                              1 	(obj:62)
t_x_21                                              1 	(obj:10)
t_x_23                                              1 	(obj:37)
t_x_25                                              1 	(obj:11)
t_x_26                                              1 	(obj:15)
t_x_27                                              1 	(obj:0)
t_x_29                                              1 	(obj:17)
t_x_33                                              1 	(obj:14)
t_x_34                                              1 	(obj:58)
t_x_36                                              1 	(obj:8)
t_x_38                                              1 	(obj:21)
t_x_39                                              1 	(obj:54)
t_x_41                                              1 	(obj:36)
t_x_42                                              1 	(obj:38)
t_x_44                                              1 	(obj:12)
t_x_46                                              1 	(obj:34)
t_x_51                                              1 	(obj:12)
t_x_55                                              1 	(obj:17)
t_x_59                                              1 	(obj:7)
t_x_60                                              1 	(obj:8)
t_x_65                                              1 	(obj:38)
t_x_67                                              1 	(obj:17)
t_x_68                                              1 	(obj:15)
t_x_69                                              1 	(obj:16)
t_x_79                                              1 	(obj:5)
t_x_82                                              1 	(obj:7)
t_x_83                                              1 	(obj:76)
t_x_84                                              1 	(obj:12)
t_x_85                                              1 	(obj:11)
t_x_86                                              1 	(obj:15)
t_x_89                                              1 	(obj:77)
t_x_94                                              1 	(obj:33)
t_x_95                                              1 	(obj:47)
t_x_96                                              1 	(obj:18)
t_x_99                                              1 	(obj:2)
t_x_101                                             1 	(obj:18)
t_x_103                                             1 	(obj:45)
t_x_106                                             1 	(obj:50)
t_x_107                                             1 	(obj:12)
t_x_108                                             1 	(obj:13)
t_x_110                                             1 	(obj:9)
t_x_111                                             1 	(obj:2)
t_x_120                                             1 	(obj:10)
t_x_122                                             1 	(obj:8)
t_x_125                                             1 	(obj:14)
t_x_127                                             1 	(obj:32)
t_x_129                                             1 	(obj:1)
t_x_130                                             1 	(obj:18)
t_x_131                                             1 	(obj:8)
t_x_132                                             1 	(obj:6)
t_x_136                                             1 	(obj:23)
t_x_138                                             1 	(obj:12)
t_x_142                                             1 	(obj:57)
t_x_143                                             1 	(obj:2)
t_x_145                                             1 	(obj:42)
t_x_147                                             1 	(obj:3)
t_x_154                                             1 	(obj:2)
t_x_157                                             1 	(obj:5)
t_x_161                                             1 	(obj:19)
t_x_162                                             1 	(obj:6)
t_x_164                                             1 	(obj:1)
t_x_170                                             1 	(obj:12)
t_x_171                                             1 	(obj:11)
t_x_172                                             1 	(obj:2)
t_x_173                                             1 	(obj:9)
t_x_174                                             1 	(obj:19)
t_x_179                                             1 	(obj:44)
t_x_182                                             1 	(obj:3)
t_x_183                                             1 	(obj:19)
t_x_189                                             1 	(obj:1)
t_x_191                                             1 	(obj:3)
t_x_196                                             1 	(obj:5)
t_x_197                                             1 	(obj:21)
t_x_198                                             1 	(obj:23)
t_x_199                                             1 	(obj:26)
t_x_200                                             1 	(obj:4)
t_x_201                                             1 	(obj:14)
t_x_203                                             1 	(obj:14)
t_x_205                                             1 	(obj:3)
t_x_206                                             1 	(obj:24)
t_x_208                                             1 	(obj:26)
t_x_209                                             1 	(obj:20)
t_x_214                                             1 	(obj:11)
t_x_221                                             1 	(obj:1)
t_x_229                                             1 	(obj:40)
t_x_232                                             1 	(obj:10)
t_x_234                                             1 	(obj:40)
t_x_237                                             1 	(obj:14)
t_x_239                                             1 	(obj:6)
t_x_241                                             1 	(obj:57)
t_x_243                                             1 	(obj:43)
t_x_249                                             1 	(obj:15)
t_x_251                                             1 	(obj:3)
t_x_257                                             1 	(obj:0)
t_x_259                                             1 	(obj:7)
t_x_262                                             1 	(obj:21)
t_x_263                                             1 	(obj:66)
t_x_267                                             1 	(obj:32)
t_x_272                                             1 	(obj:1)
t_x_283                                             1 	(obj:27)
t_x_288                                             1 	(obj:12)
t_x_289                                             1 	(obj:32)
t_x_290                                             1 	(obj:35)
t_x_294                                             1 	(obj:48)
t_x_297                                             1 	(obj:6)
t_x_311                                             1 	(obj:38)
t_x_321                                             1 	(obj:26)
t_x_326                                             1 	(obj:5)
t_x_329                                             1 	(obj:0)
t_x_346                                             1 	(obj:3)
t_x_348                                             1 	(obj:29)
t_x_352                                             1 	(obj:9)
t_x_353                                             1 	(obj:43)
t_x_359                                             1 	(obj:2)
t_x_360                                             1 	(obj:28)
t_x_363                                             1 	(obj:33)
t_x_364                                             1 	(obj:5)
t_x_373                                             1 	(obj:10)
t_x_374                                             1 	(obj:17)
t_x_383                                             1 	(obj:22)
t_x_385                                             1 	(obj:6)
t_x_389                                             1 	(obj:32)
t_x_391                                             1 	(obj:2)
t_x_394                                             1 	(obj:27)
t_x_398                                             1 	(obj:0)
t_x_399                                             1 	(obj:2)
t_x_401                                             1 	(obj:12)
t_x_402                                             1 	(obj:36)
t_x_406                                             1 	(obj:18)
t_x_409                                             1 	(obj:18)
t_x_410                                             1 	(obj:27)
t_x_412                                             1 	(obj:12)
t_x_420                                             1 	(obj:31)
t_x_421                                             1 	(obj:27)
t_x_424                                             1 	(obj:21)
t_x_425                                             1 	(obj:3)
t_x_426                                             1 	(obj:23)
t_x_429                                             1 	(obj:12)
t_x_432                                             1 	(obj:9)
t_x_435                                             1 	(obj:20)
t_x_441                                             1 	(obj:37)
t_x_442                                             1 	(obj:13)
t_x_443                                             1 	(obj:8)
t_x_444                                             1 	(obj:18)
t_x_449                                             1 	(obj:6)
t_x_452                                             1 	(obj:22)
t_x_458                                             1 	(obj:8)
t_x_465                                             1 	(obj:2)
t_x_469                                             1 	(obj:44)
t_x_474                                             1 	(obj:18)
t_x_476                                             1 	(obj:19)
t_x_483                                             1 	(obj:24)
t_x_484                                             1 	(obj:43)
t_x_486                                             1 	(obj:26)
t_x_488                                             1 	(obj:49)
t_x_490                                             1 	(obj:25)
t_x_494                                             1 	(obj:12)
t_x_498                                             1 	(obj:17)
t_x_499                                             1 	(obj:36)
t_x_504                                             1 	(obj:8)
t_x_520                                             1 	(obj:39)
t_x_521                                             1 	(obj:3)
t_x_523                                             1 	(obj:17)
t_x_529                                             1 	(obj:21)
t_x_537                                             1 	(obj:25)
t_x_539                                             1 	(obj:14)
t_x_545                                             1 	(obj:7)
t_x_551                                             1 	(obj:11)
t_x_554                                             1 	(obj:1)
t_x_555                                             1 	(obj:38)
t_x_556                                             1 	(obj:8)
t_x_560                                             1 	(obj:51)
t_x_561                                             1 	(obj:14)
t_x_571                                             1 	(obj:2)
t_x_573                                             1 	(obj:10)
t_x_574                                             1 	(obj:13)
t_x_582                                             1 	(obj:16)
t_x_585                                             1 	(obj:33)
t_x_586                                             1 	(obj:59)
t_x_588                                             1 	(obj:10)
t_x_589                                             1 	(obj:1)
t_x_591                                             1 	(obj:22)
t_x_598                                             1 	(obj:21)
t_x_600                                             1 	(obj:0)
t_x_601                                             1 	(obj:25)
t_x_603                                             1 	(obj:8)
t_x_604                                             1 	(obj:44)
t_x_605                                             1 	(obj:24)
t_x_610                                             1 	(obj:13)
t_x_611                                             1 	(obj:26)
t_x_612                                             1 	(obj:5)
t_x_614                                             1 	(obj:59)
t_x_623                                             1 	(obj:36)
t_x_624                                             1 	(obj:5)
t_x_630                                             1 	(obj:26)
t_x_632                                             1 	(obj:60)
t_x_636                                             1 	(obj:35)
t_x_640                                             1 	(obj:24)
t_x_642                                             1 	(obj:22)
t_x_643                                             1 	(obj:38)
t_x_644                                             1 	(obj:22)
t_x_646                                             1 	(obj:13)
t_x_649                                             1 	(obj:26)
t_x_651                                             1 	(obj:30)
t_x_653                                             1 	(obj:24)
t_x_661                                             1 	(obj:44)
t_x_667                                             1 	(obj:45)
t_x_669                                             1 	(obj:22)
t_x_673                                             1 	(obj:18)
t_x_677                                             1 	(obj:31)
t_x_681                                             1 	(obj:0)
t_x_684                                             1 	(obj:4)
t_x_685                                             1 	(obj:12)
t_x_688                                             1 	(obj:29)
t_x_690                                             1 	(obj:8)
t_x_691                                             1 	(obj:37)
t_x_693                                             1 	(obj:7)
t_x_698                                             1 	(obj:13)
t_x_708                                             1 	(obj:24)
t_x_711                                             1 	(obj:23)
t_x_716                                             1 	(obj:47)
t_x_718                                             1 	(obj:14)
t_x_721                                             1 	(obj:17)
t_x_722                                             1 	(obj:24)
t_x_724                                             1 	(obj:44)
t_x_728                                             1 	(obj:16)
t_x_733                                             1 	(obj:20)
t_x_735                                             1 	(obj:32)
t_x_736                                             1 	(obj:0)
t_x_749                                             1 	(obj:11)
t_x_753                                             1 	(obj:0)
t_x_754                                             1 	(obj:21)
t_x_755                                             1 	(obj:35)
t_x_756                                             1 	(obj:8)
t_x_761                                             1 	(obj:11)
t_x_765                                             1 	(obj:31)
t_x_773                                             1 	(obj:13)
t_x_775                                             1 	(obj:3)
t_x_778                                             1 	(obj:19)
t_x_783                                             1 	(obj:14)
t_x_788                                             1 	(obj:48)
t_x_789                                             1 	(obj:17)
t_x_792                                             1 	(obj:8)
t_x_794                                             1 	(obj:30)
t_x_799                                             1 	(obj:16)
t_x_808                                             1 	(obj:9)
t_x_812                                             1 	(obj:6)
t_x_813                                             1 	(obj:15)
t_x_814                                             1 	(obj:16)
t_x_821                                             1 	(obj:4)
t_x_825                                             1 	(obj:8)
t_x_828                                             1 	(obj:30)
t_x_830                                             1 	(obj:63)
t_x_831                                             1 	(obj:4)
t_x_832                                             1 	(obj:31)
t_x_837                                             1 	(obj:1)
t_x_838                                             1 	(obj:19)
t_x_842                                             1 	(obj:24)
t_x_843                                             1 	(obj:2)
t_x_844                                             1 	(obj:12)
t_x_845                                             1 	(obj:2)
t_x_848                                             1 	(obj:7)
t_x_850                                             1 	(obj:4)
t_x_854                                             1 	(obj:11)
t_x_855                                             1 	(obj:18)
t_x_857                                             1 	(obj:43)
t_x_861                                             1 	(obj:28)
t_x_863                                             1 	(obj:5)
t_x_867                                             1 	(obj:35)
t_x_869                                             1 	(obj:45)
t_x_871                                             1 	(obj:9)
t_x_874                                             1 	(obj:6)
t_x_877                                             1 	(obj:31)
t_x_878                                             1 	(obj:29)
t_x_885                                             1 	(obj:29)
t_x_890                                             1 	(obj:26)
t_x_902                                             1 	(obj:12)
t_x_910                                             1 	(obj:14)
t_x_911                                             1 	(obj:2)
t_x_914                                             1 	(obj:18)
t_x_920                                             1 	(obj:28)
t_x_922                                             1 	(obj:8)
t_x_923                                             1 	(obj:13)
t_x_924                                             1 	(obj:5)
t_x_927                                             1 	(obj:10)
t_x_928                                             1 	(obj:3)
t_x_935                                             1 	(obj:9)
t_x_939                                             1 	(obj:19)
t_x_942                                             1 	(obj:15)
t_x_944                                             1 	(obj:19)
t_x_945                                             1 	(obj:14)
t_x_949                                             1 	(obj:6)
t_x_950                                             1 	(obj:8)
t_x_951                                             1 	(obj:37)
t_x_952                                             1 	(obj:20)
t_x_955                                             1 	(obj:6)
t_x_956                                             1 	(obj:18)
t_x_959                                             1 	(obj:0)
t_x_960                                             1 	(obj:4)
t_x_962                                             1 	(obj:8)
t_x_963                                             1 	(obj:28)
t_x_967                                             1 	(obj:7)
t_x_968                                             1 	(obj:14)
t_x_969                                             1 	(obj:13)
t_x_972                                             1 	(obj:10)
t_x_973                                             1 	(obj:25)
t_x_977                                             1 	(obj:46)
t_x_979                                             1 	(obj:8)
t_x_981                                             1 	(obj:7)
t_x_984                                             1 	(obj:10)
t_x_986                                             1 	(obj:27)
t_x_988                                             1 	(obj:16)
t_x_994                                             1 	(obj:14)
t_x_995                                             1 	(obj:10)
t_x_1001                                            1 	(obj:47)
t_x_1003                                            1 	(obj:20)
t_x_1007                                            1 	(obj:17)
t_x_1016                                            1 	(obj:4)
t_x_1018                                            1 	(obj:0)
t_x_1020                                            1 	(obj:1)
t_x_1024                                            1 	(obj:8)
t_x_1025                                            1 	(obj:28)
t_x_1026                                            1 	(obj:39)
t_x_1029                                            1 	(obj:0)
t_x_1041                                            1 	(obj:11)
t_x_1044                                            1 	(obj:7)
t_x_1046                                            1 	(obj:37)
t_x_1047                                            1 	(obj:2)
t_x_1050                                            1 	(obj:37)
t_x_1062                                            1 	(obj:15)
t_x_1070                                            1 	(obj:13)
t_x_1076                                            1 	(obj:21)
t_x_1081                                            1 	(obj:15)
t_x_1084                                            1 	(obj:10)
t_x_1094                                            1 	(obj:13)
t_x_1095                                            1 	(obj:4)
t_x_1097                                            1 	(obj:15)
t_x_1099                                            1 	(obj:7)
t_x_1101                                            1 	(obj:28)
t_x_1102                                            1 	(obj:17)
t_x_1104                                            1 	(obj:10)
t_x_1105                                            1 	(obj:0)
t_x_1106                                            1 	(obj:22)
t_x_1111                                            1 	(obj:4)
t_x_1115                                            1 	(obj:23)
t_x_1118                                            1 	(obj:28)
t_x_1124                                            1 	(obj:26)
t_x_1125                                            1 	(obj:39)
t_x_1126                                            1 	(obj:15)
t_x_1133                                            1 	(obj:18)
t_x_1139                                            1 	(obj:42)
t_x_1141                                            1 	(obj:6)
t_x_1144                                            1 	(obj:6)
t_x_1156                                            1 	(obj:16)
t_x_1157                                            1 	(obj:12)
t_x_1159                                            1 	(obj:34)
t_x_1161                                            1 	(obj:14)
t_x_1165                                            1 	(obj:28)
t_x_1166                                            1 	(obj:6)
t_x_1167                                            1 	(obj:29)
t_x_1172                                            1 	(obj:10)
t_x_1177                                            1 	(obj:5)
t_x_1179                                            1 	(obj:17)
t_x_1185                                            1 	(obj:5)
t_x_1186                                            1 	(obj:1)
t_x_1195                                            1 	(obj:5)
t_x_1196                                            1 	(obj:7)
t_x_1200                                            1 	(obj:0)
t_x_1205                                            1 	(obj:29)
t_x_1206                                            1 	(obj:9)
t_x_1211                                            1 	(obj:31)
t_x_1212                                            1 	(obj:25)
t_x_1217                                            1 	(obj:1)
t_x_1218                                            1 	(obj:9)
t_x_1220                                            1 	(obj:10)
t_x_1221                                            1 	(obj:9)
t_x_1222                                            1 	(obj:34)
t_x_1226                                            1 	(obj:3)
t_x_1230                                            1 	(obj:6)
t_x_1231                                            1 	(obj:66)
t_x_1234                                            1 	(obj:41)
t_x_1237                                            1 	(obj:45)
t_x_1238                                            1 	(obj:12)
t_x_1239                                            1 	(obj:11)
t_x_1240                                            1 	(obj:26)
t_x_1248                                            1 	(obj:9)
t_x_1253                                            1 	(obj:28)
t_x_1260                                            1 	(obj:93)
t_x_1266                                            1 	(obj:19)
t_x_1271                                            1 	(obj:30)
t_x_1273                                            1 	(obj:9)
t_x_1274                                            1 	(obj:16)
t_x_1275                                            1 	(obj:0)
t_x_1276                                            1 	(obj:18)
t_x_1278                                            1 	(obj:17)
t_x_1280                                            1 	(obj:2)
t_x_1281                                            1 	(obj:33)
t_x_1285                                            1 	(obj:29)
t_x_1286                                            1 	(obj:19)
t_x_1292                                            1 	(obj:34)
t_x_1294                                            1 	(obj:12)
t_x_1298                                            1 	(obj:10)
t_x_1300                                            1 	(obj:19)
t_x_1301                                            1 	(obj:11)
t_x_1304                                            1 	(obj:11)
t_x_1316                                            1 	(obj:42)
t_x_1318                                            1 	(obj:53)
t_x_1320                                            1 	(obj:50)
t_x_1323                                            1 	(obj:56)
t_x_1324                                            1 	(obj:3)
t_x_1325                                            1 	(obj:36)
t_x_1334                                            1 	(obj:11)
t_x_1336                                            1 	(obj:41)
t_x_1339                                            1 	(obj:22)
t_x_1350                                            1 	(obj:34)
t_x_1353                                            1 	(obj:8)
t_x_1356                                            1 	(obj:31)
t_x_1360                                            1 	(obj:5)
t_x_1370                                            1 	(obj:23)
t_x_1372                                            1 	(obj:19)
t_x_1374                                            1 	(obj:8)
t_x_1377                                            1 	(obj:3)
t_x_1383                                            1 	(obj:24)
t_x_1385                                            1 	(obj:42)
t_x_1390                                            1 	(obj:27)
t_x_1399                                            1 	(obj:15)
t_x_1404                                            1 	(obj:13)
t_x_1416                                            1 	(obj:9)
t_x_1417                                            1 	(obj:2)
t_x_1420                                            1 	(obj:38)
t_x_1421                                            1 	(obj:9)
t_x_1423                                            1 	(obj:14)
t_x_1429                                            1 	(obj:9)
t_x_1431                                            1 	(obj:15)
t_x_1435                                            1 	(obj:8)
t_x_1438                                            1 	(obj:13)
t_x_1441                                            1 	(obj:34)
t_x_1442                                            1 	(obj:35)
t_x_1445                                            1 	(obj:11)
t_x_1447                                            1 	(obj:12)
t_x_1448                                            1 	(obj:9)
t_x_1451                                            1 	(obj:15)
t_x_1454                                            1 	(obj:15)
t_x_1462                                            1 	(obj:13)
t_x_1468                                            1 	(obj:0)
t_x_1482                                            1 	(obj:7)
t_x_1490                                            1 	(obj:14)
t_x_1491                                            1 	(obj:12)
t_x_1494                                            1 	(obj:8)
t_x_1502                                            1 	(obj:9)
t_x_1505                                            1 	(obj:41)
t_x_1506                                            1 	(obj:31)
t_x_1507                                            1 	(obj:22)
t_x_1508                                            1 	(obj:43)
t_x_1510                                            1 	(obj:1)
t_x_1511                                            1 	(obj:16)
t_x_1512                                            1 	(obj:60)
t_x_1520                                            1 	(obj:18)
t_x_1523                                            1 	(obj:33)
t_x_1531                                            1 	(obj:56)
t_x_1532                                            1 	(obj:39)
t_x_1538                                            1 	(obj:8)
t_x_1540                                            1 	(obj:27)
t_x_1541                                            1 	(obj:4)
t_x_1544                                            1 	(obj:19)
t_x_1545                                            1 	(obj:12)
t_x_1548                                            1 	(obj:9)
t_x_1549                                            1 	(obj:13)
t_x_1555                                            1 	(obj:16)
t_x_1562                                            1 	(obj:37)
t_x_1564                                            1 	(obj:21)
t_x_1568                                            1 	(obj:45)
t_x_1570                                            1 	(obj:4)
t_x_1579                                            1 	(obj:22)
t_x_1588                                            1 	(obj:11)
t_x_1589                                            1 	(obj:12)
t_x_1590                                            1 	(obj:23)
t_x_1591                                            1 	(obj:19)
t_x_1592                                            1 	(obj:3)
t_x_1593                                            1 	(obj:0)
t_x_1594                                            1 	(obj:3)
t_x_1595                                            1 	(obj:8)
t_x_1597                                            1 	(obj:12)
t_x_1599                                            1 	(obj:3)
t_x_1605                                            1 	(obj:2)
t_x_1606                                            1 	(obj:15)
t_x_1610                                            1 	(obj:9)
t_x_1619                                            1 	(obj:16)
t_x_1624                                            1 	(obj:26)
t_x_1627                                            1 	(obj:27)
t_x_1630                                            1 	(obj:31)
t_x_1633                                            1 	(obj:65)
t_x_1639                                            1 	(obj:5)
t_x_1642                                            1 	(obj:12)
t_x_1643                                            1 	(obj:20)
t_x_1644                                            1 	(obj:0)
t_x_1647                                            1 	(obj:16)
t_x_1650                                            1 	(obj:10)
t_x_1651                                            1 	(obj:4)
t_x_1657                                            1 	(obj:23)
t_x_1661                                            1 	(obj:22)
t_x_1662                                            1 	(obj:10)
t_x_1663                                            1 	(obj:0)
t_x_1665                                            1 	(obj:51)
t_x_1667                                            1 	(obj:25)
t_x_1669                                            1 	(obj:2)
t_x_1672                                            1 	(obj:34)
t_x_1673                                            1 	(obj:15)
t_x_1679                                            1 	(obj:17)
t_x_1680                                            1 	(obj:7)
t_x_1682                                            1 	(obj:43)
t_x_1687                                            1 	(obj:14)
t_x_1688                                            1 	(obj:7)
t_x_1692                                            1 	(obj:30)
t_x_1693                                            1 	(obj:10)
t_x_1713                                            1 	(obj:45)
t_x_1714                                            1 	(obj:46)
t_x_1715                                            1 	(obj:15)
t_x_1716                                            1 	(obj:18)
t_x_1720                                            1 	(obj:10)
t_x_1721                                            1 	(obj:20)
t_x_1733                                            1 	(obj:10)
t_x_1736                                            1 	(obj:6)
t_x_1737                                            1 	(obj:16)
t_x_1738                                            1 	(obj:11)
t_x_1739                                            1 	(obj:9)
t_x_1740                                            1 	(obj:13)
t_x_1741                                            1 	(obj:11)
t_x_1747                                            1 	(obj:17)
t_x_1751                                            1 	(obj:0)
t_x_1755                                            1 	(obj:8)
t_x_1757                                            1 	(obj:7)
t_x_1761                                            1 	(obj:19)
t_x_1762                                            1 	(obj:5)
t_x_1769                                            1 	(obj:12)
t_x_1775                                            1 	(obj:10)
t_x_1779                                            1 	(obj:10)
t_x_1783                                            1 	(obj:58)
t_x_1784                                            1 	(obj:1)
t_x_1788                                            1 	(obj:41)
t_x_1789                                            1 	(obj:24)
t_x_1793                                            1 	(obj:48)
t_x_1798                                            1 	(obj:3)
t_x_1799                                            1 	(obj:1)
t_x_1805                                            1 	(obj:11)
t_x_1806                                            1 	(obj:10)
t_x_1807                                            1 	(obj:10)
t_x_1808                                            1 	(obj:25)
t_x_1809                                            1 	(obj:2)
t_x_1814                                            1 	(obj:28)
t_x_1817                                            1 	(obj:19)
t_x_1819                                            1 	(obj:2)
t_x_1822                                            1 	(obj:36)
t_x_1825                                            1 	(obj:17)
t_x_1826                                            1 	(obj:28)
t_x_1828                                            1 	(obj:1)
t_x_1833                                            1 	(obj:14)
t_x_1835                                            1 	(obj:22)
t_x_1837                                            1 	(obj:6)
t_x_1839                                            1 	(obj:0)
t_x_1852                                            1 	(obj:3)
t_x_1857                                            1 	(obj:1)
t_x_1861                                            1 	(obj:27)
t_x_1862                                            1 	(obj:19)
t_x_1867                                            1 	(obj:23)
t_x_1869                                            1 	(obj:9)
t_x_1873                                            1 	(obj:16)
t_x_1874                                            1 	(obj:64)
t_x_1878                                            1 	(obj:10)
t_x_1882                                            1 	(obj:19)
t_x_1883                                            1 	(obj:7)
t_x_1886                                            1 	(obj:30)
t_x_1888                                            1 	(obj:9)
t_x_1890                                            1 	(obj:13)
t_x_1892                                            1 	(obj:35)
t_x_1899                                            1 	(obj:0)
t_x_1904                                            1 	(obj:19)
t_x_1907                                            1 	(obj:5)
t_x_1908                                            1 	(obj:8)
t_x_1909                                            1 	(obj:29)
t_x_1912                                            1 	(obj:64)
t_x_1914                                            1 	(obj:8)
t_x_1916                                            1 	(obj:5)
t_x_1919                                            1 	(obj:24)
t_x_1922                                            1 	(obj:42)
t_x_1923                                            1 	(obj:2)
t_x_1925                                            1 	(obj:23)
t_x_1928                                            1 	(obj:9)
t_x_1935                                            1 	(obj:9)
t_x_1941                                            1 	(obj:30)
t_x_1943                                            1 	(obj:26)
t_x_1945                                            1 	(obj:45)
t_x_1951                                            1 	(obj:32)
t_x_1952                                            1 	(obj:4)
t_x_1953                                            1 	(obj:3)
t_x_1956                                            1 	(obj:13)
t_x_1957                                            1 	(obj:19)
t_x_1966                                            1 	(obj:15)
t_x_1968                                            1 	(obj:9)
t_x_1971                                            1 	(obj:50)
t_x_1976                                            1 	(obj:12)
t_x_1978                                            1 	(obj:21)
t_x_1979                                            1 	(obj:11)
t_x_1980                                            1 	(obj:7)
t_x_1982                                            1 	(obj:37)
t_x_1984                                            1 	(obj:26)
t_x_1987                                            1 	(obj:27)
t_x_1988                                            1 	(obj:84)
t_x_1993                                            1 	(obj:10)
t_x_1996                                            1 	(obj:9)
t_x_1999                                            1 	(obj:22)
